<?xml version = "1.0" standalone="yes"?>
<!-- This file has been generated by DOcplex version 2.23.222  -->
<CPLEXSolution version="1.0">
 <header
   problemName="CVRP"
   objectiveValue="19531.6"
  />
 <variables>
  <variable name="x_0_3" index="2" value="1.00000"/>
  <variable name="x_0_4" index="3" value="1.00000"/>
  <variable name="x_0_5" index="4" value="1.00000"/>
  <variable name="x_0_6" index="5" value="1.00000"/>
  <variable name="x_0_9" index="8" value="1.00000"/>
  <variable name="x_0_10" index="9" value="1.00000"/>
  <variable name="x_0_11" index="10" value="1.00000"/>
  <variable name="x_0_15" index="14" value="1.00000"/>
  <variable name="x_0_16" index="15" value="1.00000"/>
  <variable name="x_0_17" index="16" value="1.00000"/>
  <variable name="x_0_18" index="17" value="1.00000"/>
  <variable name="x_0_19" index="18" value="1.00000"/>
  <variable name="x_0_20" index="19" value="1.00000"/>
  <variable name="x_0_21" index="20" value="1.00000"/>
  <variable name="x_0_22" index="21" value="1.00000"/>
  <variable name="x_0_23" index="22" value="1.00000"/>
  <variable name="x_1_0" index="24" value="1.00000"/>
  <variable name="x_2_12" index="59" value="1.00000"/>
  <variable name="x_3_0" index="72" value="1.00000"/>
  <variable name="x_4_1" index="97" value="1.00000"/>
  <variable name="x_5_0" index="120" value="1.00000"/>
  <variable name="x_6_0" index="144" value="1.00000"/>
  <variable name="x_7_0" index="168" value="1.00000"/>
  <variable name="x_8_0" index="192" value="1.00000"/>
  <variable name="x_9_0" index="216" value="1.00000"/>
  <variable name="x_10_8" index="248" value="1.00000"/>
  <variable name="x_11_0" index="264" value="1.00000"/>
  <variable name="x_12_0" index="288" value="1.00000"/>
  <variable name="x_13_0" index="312" value="1.00000"/>
  <variable name="x_14_0" index="336" value="1.00000"/>
  <variable name="x_15_24" index="383" value="1.00000"/>
  <variable name="x_16_13" index="397" value="1.00000"/>
  <variable name="x_17_0" index="408" value="1.00000"/>
  <variable name="x_18_0" index="432" value="1.00000"/>
  <variable name="x_19_0" index="456" value="1.00000"/>
  <variable name="x_20_7" index="487" value="1.00000"/>
  <variable name="x_21_0" index="504" value="1.00000"/>
  <variable name="x_22_14" index="542" value="1.00000"/>
  <variable name="x_23_2" index="554" value="1.00000"/>
  <variable name="x_24_0" index="576" value="1.00000"/>
  <variable name="u_1" index="600" value="52.00000"/>
  <variable name="u_2" index="601" value="50.00000"/>
  <variable name="u_3" index="602" value="51.00000"/>
  <variable name="u_4" index="603" value="34.00000"/>
  <variable name="u_5" index="604" value="61.00000"/>
  <variable name="u_6" index="605" value="57.00000"/>
  <variable name="u_7" index="606" value="57.00000"/>
  <variable name="u_8" index="607" value="61.00000"/>
  <variable name="u_9" index="608" value="61.00000"/>
  <variable name="u_10" index="609" value="19.00000"/>
  <variable name="u_11" index="610" value="50.00000"/>
  <variable name="u_12" index="611" value="61.00000"/>
  <variable name="u_13" index="612" value="58.00000"/>
  <variable name="u_14" index="613" value="52.00000"/>
  <variable name="u_15" index="614" value="22.00000"/>
  <variable name="u_16" index="615" value="44.00000"/>
  <variable name="u_17" index="616" value="57.00000"/>
  <variable name="u_18" index="617" value="56.00000"/>
  <variable name="u_19" index="618" value="26.00000"/>
  <variable name="u_20" index="619" value="26.00000"/>
  <variable name="u_21" index="620" value="58.00000"/>
  <variable name="u_22" index="621" value="31.00000"/>
  <variable name="u_23" index="622" value="25.00000"/>
  <variable name="u_24" index="623" value="60.00000"/>
 </variables>
</CPLEXSolution>
